(set-info :smt-lib-version 2.6)
(set-logic QF_NIA)
(set-info :source |
Generated by: Cristina Borralleras, Daniel Larraz, Albert Oliveras, Enric Rodriguez-Carbonell, Albert Rubio
Generated on: 2017-04-27
Generator: VeryMax
Application: Termination proving
Target solver: barcelogic
|)
(set-info :license "https://creativecommons.org/licenses/by/4.0/")
(set-info :category "industrial")
(set-info :status unknown)
(declare-fun Nl46a!1052^01 () Int)
(declare-fun Nl46a!1055^01 () Int)
(declare-fun Nl46head!16^01 () Int)
(declare-fun Nl46sdv_CALLSITE_RETURN_1!14^01 () Int)
(declare-fun Nl46x!15^01 () Int)
(declare-fun Nl46a!1052^02 () Int)
(declare-fun Nl46a!1055^02 () Int)
(declare-fun Nl46head!16^02 () Int)
(declare-fun Nl46sdv_CALLSITE_RETURN_1!14^02 () Int)
(declare-fun Nl46x!15^02 () Int)
(declare-fun Nl46a!1052^03 () Int)
(declare-fun Nl46a!1055^03 () Int)
(declare-fun Nl46head!16^03 () Int)
(declare-fun Nl46sdv_CALLSITE_RETURN_1!14^03 () Int)
(declare-fun Nl46x!15^03 () Int)
(declare-fun lam0n0 () Int)
(declare-fun lam0n1 () Int)
(declare-fun lam0n2 () Int)
(declare-fun lam0n3 () Int)
(declare-fun lam0n4 () Int)
(declare-fun lam0n5 () Int)
(declare-fun lam0n6 () Int)
(declare-fun Nl46CT1 () Int)
(declare-fun lam1n0 () Int)
(declare-fun lam1n1 () Int)
(declare-fun lam1n2 () Int)
(declare-fun lam1n3 () Int)
(declare-fun lam1n4 () Int)
(declare-fun lam1n5 () Int)
(declare-fun lam1n6 () Int)
(declare-fun Nl46CT2 () Int)
(declare-fun lam2n0 () Int)
(declare-fun lam2n1 () Int)
(declare-fun lam2n2 () Int)
(declare-fun lam2n3 () Int)
(declare-fun lam2n4 () Int)
(declare-fun lam2n5 () Int)
(declare-fun lam2n6 () Int)
(declare-fun Nl46CT3 () Int)
(declare-fun lam3n0 () Int)
(declare-fun lam3n1 () Int)
(declare-fun lam3n2 () Int)
(declare-fun lam3n3 () Int)
(declare-fun lam3n4 () Int)
(declare-fun lam3n5 () Int)
(declare-fun lam3n6 () Int)
(declare-fun lam4n0 () Int)
(declare-fun lam4n1 () Int)
(declare-fun lam4n2 () Int)
(declare-fun lam4n3 () Int)
(declare-fun lam4n4 () Int)
(declare-fun lam4n5 () Int)
(declare-fun lam4n6 () Int)
(declare-fun lam5n0 () Int)
(declare-fun lam5n1 () Int)
(declare-fun lam5n2 () Int)
(declare-fun lam5n3 () Int)
(declare-fun lam5n4 () Int)
(declare-fun lam5n5 () Int)
(declare-fun lam5n6 () Int)
(declare-fun a!1052^0 () Int)
(declare-fun head!16^0 () Int)
(declare-fun undef4788 () Int)
(declare-fun x!15^0 () Int)
(declare-fun sdv_CALLSITE_RETURN_1!14^0 () Int)
(declare-fun undef4761 () Int)
(declare-fun lam6n0 () Int)
(declare-fun lam6n1 () Int)
(declare-fun lam6n2 () Int)
(declare-fun lam6n3 () Int)
(declare-fun lam6n4 () Int)
(declare-fun lam6n5 () Int)
(declare-fun lam6n6 () Int)
(declare-fun lam6n7 () Int)
(declare-fun lam6n8 () Int)
(declare-fun lam7n0 () Int)
(declare-fun lam7n1 () Int)
(declare-fun lam7n2 () Int)
(declare-fun lam7n3 () Int)
(declare-fun lam7n4 () Int)
(declare-fun lam7n5 () Int)
(declare-fun lam7n6 () Int)
(declare-fun lam7n7 () Int)
(declare-fun lam7n8 () Int)
(assert ( and ( <= ( - 1 ) Nl46a!1052^01 ) ( <= Nl46a!1052^01 1 ) ( <= ( - 1 ) Nl46a!1055^01 ) ( <= Nl46a!1055^01 1 ) ( <= ( - 1 ) Nl46head!16^01 ) ( <= Nl46head!16^01 1 ) ( <= ( - 1 ) Nl46sdv_CALLSITE_RETURN_1!14^01 ) ( <= Nl46sdv_CALLSITE_RETURN_1!14^01 1 ) ( <= ( - 1 ) Nl46x!15^01 ) ( <= Nl46x!15^01 1 ) ( <= ( - 1 ) Nl46a!1052^02 ) ( <= Nl46a!1052^02 1 ) ( <= ( - 1 ) Nl46a!1055^02 ) ( <= Nl46a!1055^02 1 ) ( <= ( - 1 ) Nl46head!16^02 ) ( <= Nl46head!16^02 1 ) ( <= ( - 1 ) Nl46sdv_CALLSITE_RETURN_1!14^02 ) ( <= Nl46sdv_CALLSITE_RETURN_1!14^02 1 ) ( <= ( - 1 ) Nl46x!15^02 ) ( <= Nl46x!15^02 1 ) ( <= ( - 1 ) Nl46a!1052^03 ) ( <= Nl46a!1052^03 1 ) ( <= ( - 1 ) Nl46a!1055^03 ) ( <= Nl46a!1055^03 1 ) ( <= ( - 1 ) Nl46head!16^03 ) ( <= Nl46head!16^03 1 ) ( <= ( - 1 ) Nl46sdv_CALLSITE_RETURN_1!14^03 ) ( <= Nl46sdv_CALLSITE_RETURN_1!14^03 1 ) ( <= ( - 1 ) Nl46x!15^03 ) ( <= Nl46x!15^03 1 ) ))
(assert ( or ( and ( <= ( + 1 ( * ( - 1 ) a!1052^0 ) ) 0 ) ( <= ( + 1 ( * ( - 1 ) head!16^0 ) undef4788 ) 0 ) ( <= ( + 1 ( * ( - 1 ) x!15^0 ) ) 0 ) ( <= ( + 1 undef4788 ) 0 ) ( not ( <= ( + ( - 1 ) head!16^0 ) 0 ) ) ( <= ( + 2 ( * ( - 1 ) sdv_CALLSITE_RETURN_1!14^0 ) ) 0 ) ( <= ( + 2 ( * ( - 1 ) undef4761 ) ) 0 ) ( <= ( + ( + ( + Nl46CT1 ( * Nl46a!1055^01 ( - 1 ) ) ) ( * Nl46x!15^01 0 ) ) ( * ( + 0 Nl46a!1052^01 ) a!1052^0 ) ( * ( + 0 Nl46head!16^01 ) head!16^0 ) ( * ( + 0 Nl46sdv_CALLSITE_RETURN_1!14^01 ) sdv_CALLSITE_RETURN_1!14^0 ) ( * ( + 0 ( * Nl46a!1055^01 1 ) ) undef4761 ) ( * ( + 0 ( * Nl46x!15^01 1 ) ) undef4788 ) ) 0 ) ( <= ( + ( + ( + Nl46CT2 ( * Nl46a!1055^02 ( - 1 ) ) ) ( * Nl46x!15^02 0 ) ) ( * ( + 0 Nl46a!1052^02 ) a!1052^0 ) ( * ( + 0 Nl46head!16^02 ) head!16^0 ) ( * ( + 0 Nl46sdv_CALLSITE_RETURN_1!14^02 ) sdv_CALLSITE_RETURN_1!14^0 ) ( * ( + 0 ( * Nl46a!1055^02 1 ) ) undef4761 ) ( * ( + 0 ( * Nl46x!15^02 1 ) ) undef4788 ) ) 0 ) ( <= ( + ( + ( + Nl46CT3 ( * Nl46a!1055^03 ( - 1 ) ) ) ( * Nl46x!15^03 0 ) ) ( * ( + 0 Nl46a!1052^03 ) a!1052^0 ) ( * ( + 0 Nl46head!16^03 ) head!16^0 ) ( * ( + 0 Nl46sdv_CALLSITE_RETURN_1!14^03 ) sdv_CALLSITE_RETURN_1!14^0 ) ( * ( + 0 ( * Nl46a!1055^03 1 ) ) undef4761 ) ( * ( + 0 ( * Nl46x!15^03 1 ) ) undef4788 ) ) 0 ) ) ( and ( <= ( + 1 ( * ( - 1 ) a!1052^0 ) ) 0 ) ( <= ( + 1 ( * ( - 1 ) head!16^0 ) undef4788 ) 0 ) ( <= ( + 1 x!15^0 ) 0 ) ( <= ( + 1 undef4788 ) 0 ) ( not ( <= ( + ( - 1 ) head!16^0 ) 0 ) ) ( <= ( + 2 ( * ( - 1 ) sdv_CALLSITE_RETURN_1!14^0 ) ) 0 ) ( <= ( + 2 ( * ( - 1 ) undef4761 ) ) 0 ) ( <= ( + ( + ( + Nl46CT1 ( * Nl46a!1055^01 ( - 1 ) ) ) ( * Nl46x!15^01 0 ) ) ( * ( + 0 Nl46a!1052^01 ) a!1052^0 ) ( * ( + 0 Nl46head!16^01 ) head!16^0 ) ( * ( + 0 Nl46sdv_CALLSITE_RETURN_1!14^01 ) sdv_CALLSITE_RETURN_1!14^0 ) ( * ( + 0 ( * Nl46a!1055^01 1 ) ) undef4761 ) ( * ( + 0 ( * Nl46x!15^01 1 ) ) undef4788 ) ) 0 ) ( <= ( + ( + ( + Nl46CT2 ( * Nl46a!1055^02 ( - 1 ) ) ) ( * Nl46x!15^02 0 ) ) ( * ( + 0 Nl46a!1052^02 ) a!1052^0 ) ( * ( + 0 Nl46head!16^02 ) head!16^0 ) ( * ( + 0 Nl46sdv_CALLSITE_RETURN_1!14^02 ) sdv_CALLSITE_RETURN_1!14^0 ) ( * ( + 0 ( * Nl46a!1055^02 1 ) ) undef4761 ) ( * ( + 0 ( * Nl46x!15^02 1 ) ) undef4788 ) ) 0 ) ( <= ( + ( + ( + Nl46CT3 ( * Nl46a!1055^03 ( - 1 ) ) ) ( * Nl46x!15^03 0 ) ) ( * ( + 0 Nl46a!1052^03 ) a!1052^0 ) ( * ( + 0 Nl46head!16^03 ) head!16^0 ) ( * ( + 0 Nl46sdv_CALLSITE_RETURN_1!14^03 ) sdv_CALLSITE_RETURN_1!14^0 ) ( * ( + 0 ( * Nl46a!1055^03 1 ) ) undef4761 ) ( * ( + 0 ( * Nl46x!15^03 1 ) ) undef4788 ) ) 0 ) ) ))
(assert ( or ( or ( and ( >= lam6n0 0 ) ( >= lam6n1 0 ) ( >= lam6n2 0 ) ( >= lam6n3 0 ) ( >= lam6n4 0 ) ( >= lam6n5 0 ) ( >= lam6n6 0 ) ( >= lam6n7 0 ) ( >= lam6n8 0 ) ( > ( + ( * 1 lam6n0 ) ( * 1 lam6n1 ) ( * 1 lam6n2 ) ( * 1 lam6n3 ) ( * 1 lam6n4 ) ( * 2 lam6n5 ) ( * Nl46CT1 lam6n6 ) ( * Nl46CT2 lam6n7 ) ( * Nl46CT3 lam6n8 ) ( - 1 ) ) 0 ) ( = ( + ( * ( - 1 ) lam6n0 ) ( * Nl46a!1052^01 lam6n6 ) ( * Nl46a!1052^02 lam6n7 ) ( * Nl46a!1052^03 lam6n8 ) ) 0 ) ( = ( + ( * ( - 1 ) lam6n1 ) ( * Nl46a!1055^01 lam6n6 ) ( * Nl46a!1055^02 lam6n7 ) ( * Nl46a!1055^03 lam6n8 ) ) 0 ) ( = ( + ( * ( - 1 ) lam6n2 ) ( * ( - 1 ) lam6n3 ) ( * Nl46head!16^01 lam6n6 ) ( * Nl46head!16^02 lam6n7 ) ( * Nl46head!16^03 lam6n8 ) ) 0 ) ( = ( + ( * ( - 1 ) lam6n5 ) ( * Nl46sdv_CALLSITE_RETURN_1!14^01 lam6n6 ) ( * Nl46sdv_CALLSITE_RETURN_1!14^02 lam6n7 ) ( * Nl46sdv_CALLSITE_RETURN_1!14^03 lam6n8 ) ) 0 ) ( = ( + ( * 1 lam6n3 ) ( * 1 lam6n4 ) ( * Nl46x!15^01 lam6n6 ) ( * Nl46x!15^02 lam6n7 ) ( * Nl46x!15^03 lam6n8 ) ) 0 ) ) ( and ( >= lam7n0 0 ) ( >= lam7n1 0 ) ( >= lam7n2 0 ) ( >= lam7n3 0 ) ( >= lam7n4 0 ) ( >= lam7n5 0 ) ( >= lam7n6 0 ) ( >= lam7n7 0 ) ( >= lam7n8 0 ) ( > ( + ( * 1 lam7n0 ) ( * 1 lam7n1 ) ( * 1 lam7n2 ) ( * 1 lam7n3 ) ( * 1 lam7n4 ) ( * 2 lam7n5 ) ( * Nl46CT1 lam7n6 ) ( * Nl46CT2 lam7n7 ) ( * Nl46CT3 lam7n8 ) 2 ) 0 ) ( = ( + ( * ( - 1 ) lam7n0 ) ( * Nl46a!1052^01 lam7n6 ) ( * Nl46a!1052^02 lam7n7 ) ( * Nl46a!1052^03 lam7n8 ) ) 0 ) ( = ( + ( * ( - 1 ) lam7n1 ) ( * Nl46a!1055^01 lam7n6 ) ( * Nl46a!1055^02 lam7n7 ) ( * Nl46a!1055^03 lam7n8 ) ) 0 ) ( = ( + ( * ( - 1 ) lam7n2 ) ( * ( - 1 ) lam7n3 ) ( * Nl46head!16^01 lam7n6 ) ( * Nl46head!16^02 lam7n7 ) ( * Nl46head!16^03 lam7n8 ) ( - 1 ) ) 0 ) ( = ( + ( * ( - 1 ) lam7n5 ) ( * Nl46sdv_CALLSITE_RETURN_1!14^01 lam7n6 ) ( * Nl46sdv_CALLSITE_RETURN_1!14^02 lam7n7 ) ( * Nl46sdv_CALLSITE_RETURN_1!14^03 lam7n8 ) ) 0 ) ( = ( + ( * 1 lam7n3 ) ( * 1 lam7n4 ) ( * Nl46x!15^01 lam7n6 ) ( * Nl46x!15^02 lam7n7 ) ( * Nl46x!15^03 lam7n8 ) ) 0 ) ) ) ( and ( or ( and ( <= ( + 1 ( * ( - 1 ) a!1052^0 ) ) 0 ) ( <= ( + 1 ( * ( - 1 ) head!16^0 ) undef4788 ) 0 ) ( <= ( + 1 ( * ( - 1 ) x!15^0 ) ) 0 ) ( <= ( + 1 undef4788 ) 0 ) ( not ( <= ( + ( - 1 ) head!16^0 ) 0 ) ) ( <= ( + 2 ( * ( - 1 ) sdv_CALLSITE_RETURN_1!14^0 ) ) 0 ) ( <= ( + 2 ( * ( - 1 ) undef4761 ) ) 0 ) ( <= ( + ( + ( + Nl46CT1 ( * Nl46a!1055^01 ( - 1 ) ) ) ( * Nl46x!15^01 0 ) ) ( * ( + 0 Nl46a!1052^01 ) a!1052^0 ) ( * ( + 0 Nl46head!16^01 ) head!16^0 ) ( * ( + 0 Nl46sdv_CALLSITE_RETURN_1!14^01 ) sdv_CALLSITE_RETURN_1!14^0 ) ( * ( + 0 ( * Nl46a!1055^01 1 ) ) undef4761 ) ( * ( + 0 ( * Nl46x!15^01 1 ) ) undef4788 ) ) 0 ) ( <= ( + ( + ( + Nl46CT2 ( * Nl46a!1055^02 ( - 1 ) ) ) ( * Nl46x!15^02 0 ) ) ( * ( + 0 Nl46a!1052^02 ) a!1052^0 ) ( * ( + 0 Nl46head!16^02 ) head!16^0 ) ( * ( + 0 Nl46sdv_CALLSITE_RETURN_1!14^02 ) sdv_CALLSITE_RETURN_1!14^0 ) ( * ( + 0 ( * Nl46a!1055^02 1 ) ) undef4761 ) ( * ( + 0 ( * Nl46x!15^02 1 ) ) undef4788 ) ) 0 ) ( <= ( + ( + ( + Nl46CT3 ( * Nl46a!1055^03 ( - 1 ) ) ) ( * Nl46x!15^03 0 ) ) ( * ( + 0 Nl46a!1052^03 ) a!1052^0 ) ( * ( + 0 Nl46head!16^03 ) head!16^0 ) ( * ( + 0 Nl46sdv_CALLSITE_RETURN_1!14^03 ) sdv_CALLSITE_RETURN_1!14^0 ) ( * ( + 0 ( * Nl46a!1055^03 1 ) ) undef4761 ) ( * ( + 0 ( * Nl46x!15^03 1 ) ) undef4788 ) ) 0 ) ) ( and ( <= ( + 1 ( * ( - 1 ) a!1052^0 ) ) 0 ) ( <= ( + 1 ( * ( - 1 ) head!16^0 ) undef4788 ) 0 ) ( <= ( + 1 x!15^0 ) 0 ) ( <= ( + 1 undef4788 ) 0 ) ( not ( <= ( + ( - 1 ) head!16^0 ) 0 ) ) ( <= ( + 2 ( * ( - 1 ) sdv_CALLSITE_RETURN_1!14^0 ) ) 0 ) ( <= ( + 2 ( * ( - 1 ) undef4761 ) ) 0 ) ( <= ( + ( + ( + Nl46CT1 ( * Nl46a!1055^01 ( - 1 ) ) ) ( * Nl46x!15^01 0 ) ) ( * ( + 0 Nl46a!1052^01 ) a!1052^0 ) ( * ( + 0 Nl46head!16^01 ) head!16^0 ) ( * ( + 0 Nl46sdv_CALLSITE_RETURN_1!14^01 ) sdv_CALLSITE_RETURN_1!14^0 ) ( * ( + 0 ( * Nl46a!1055^01 1 ) ) undef4761 ) ( * ( + 0 ( * Nl46x!15^01 1 ) ) undef4788 ) ) 0 ) ( <= ( + ( + ( + Nl46CT2 ( * Nl46a!1055^02 ( - 1 ) ) ) ( * Nl46x!15^02 0 ) ) ( * ( + 0 Nl46a!1052^02 ) a!1052^0 ) ( * ( + 0 Nl46head!16^02 ) head!16^0 ) ( * ( + 0 Nl46sdv_CALLSITE_RETURN_1!14^02 ) sdv_CALLSITE_RETURN_1!14^0 ) ( * ( + 0 ( * Nl46a!1055^02 1 ) ) undef4761 ) ( * ( + 0 ( * Nl46x!15^02 1 ) ) undef4788 ) ) 0 ) ( <= ( + ( + ( + Nl46CT3 ( * Nl46a!1055^03 ( - 1 ) ) ) ( * Nl46x!15^03 0 ) ) ( * ( + 0 Nl46a!1052^03 ) a!1052^0 ) ( * ( + 0 Nl46head!16^03 ) head!16^0 ) ( * ( + 0 Nl46sdv_CALLSITE_RETURN_1!14^03 ) sdv_CALLSITE_RETURN_1!14^0 ) ( * ( + 0 ( * Nl46a!1055^03 1 ) ) undef4761 ) ( * ( + 0 ( * Nl46x!15^03 1 ) ) undef4788 ) ) 0 ) ) ) false ) ))
(check-sat)
(exit)
